26
GradSCF native RHF/STO-3G optimized Td cage
C -0.8939707039 -0.8939707039 0.8939707039
C -0.8939707039 0.8939707039 -0.8939707039
C 0.8939707039 -0.8939707039 -0.8939707039
C 0.8939707039 0.8939707039 0.8939707039
C 1.7867679570 0.0000000000 0.0000000000
C 0.0000000000 1.7867679570 0.0000000000
C 0.0000000000 0.0000000000 1.7867679570
C -1.7867679570 -0.0000000000 -0.0000000000
C -0.0000000000 -1.7867679570 -0.0000000000
C -0.0000000000 -0.0000000000 -1.7867679570
H -1.5230468554 -1.5230468554 1.5230468554
H -1.5230468554 1.5230468554 -1.5230468554
H 1.5230468554 -1.5230468554 -1.5230468554
H 1.5230468554 1.5230468554 1.5230468554
H 2.4291751452 -0.6207331875 0.6207331875
H 2.4291751452 0.6207331875 -0.6207331875
H -0.6207331875 2.4291751452 0.6207331875
H 0.6207331875 2.4291751452 -0.6207331875
H -0.6207331875 0.6207331875 2.4291751452
H 0.6207331875 -0.6207331875 2.4291751452
H -2.4291751452 -0.6207331875 -0.6207331875
H -2.4291751452 0.6207331875 0.6207331875
H -0.6207331875 -2.4291751452 -0.6207331875
H 0.6207331875 -2.4291751452 0.6207331875
H -0.6207331875 -0.6207331875 -2.4291751452
H 0.6207331875 0.6207331875 -2.4291751452
